(set-option :produce-models true)
; QF_UFLIA_Benchmark
(set-info :status unknown)
(set-logic QF_UFLIA)
(declare-fun cost (Int Int) Int)
(declare-fun n_19 () Int)
(declare-fun n_18 () Int)
(declare-fun n_17 () Int)
(declare-fun n_16 () Int)
(declare-fun n_15 () Int)
(declare-fun n_14 () Int)
(declare-fun n_13 () Int)
(declare-fun n_12 () Int)
(declare-fun n_11 () Int)
(declare-fun n_10 () Int)
(declare-fun n_9 () Int)
(declare-fun n_8 () Int)
(declare-fun n_7 () Int)
(declare-fun n_6 () Int)
(declare-fun n_5 () Int)
(declare-fun n_4 () Int)
(declare-fun n_3 () Int)
(declare-fun n_2 () Int)
(declare-fun n_1 () Int)
(declare-fun n_0 () Int)
(assert
(let ((?x930 (+ (cost n_0 n_1) (cost n_1 n_2) (cost n_2 n_3) (cost n_3 n_4) (cost n_4 n_5) (cost n_5 n_6) (cost n_6 n_7) (cost n_7 n_8) (cost n_8 n_9) (cost n_9 n_10) (cost n_10 n_11) (cost n_11 n_12) (cost n_12 n_13) (cost n_13 n_14) (cost n_14 n_15) (cost n_15 n_16) (cost n_16 n_17) (cost n_17 n_18) (cost n_18 n_19))))
(let (($x932 (<= ?x930 200)))
(let (($x910 (and (= (cost 0 0) 2) (= (cost 0 1) 20) (= (cost 0 2) 14) (= (cost 0 3) 10) (= (cost 0 4) 2) (= (cost 0 5) 8) (= (cost 0 6) 15) (= (cost 0 7) 13) (= (cost 0 8) 12) (= (cost 0 9) 18) (= (cost 0 10) 15) (= (cost 0 11) 3) (= (cost 0 12) 20) (= (cost 0 13) 4) (= (cost 0 14) 8) (= (cost 0 15) 11) (= (cost 0 16) 5) (= (cost 0 17) 8) (= (cost 0 18) 8) (= (cost 0 19) 1) (= (cost 1 0) 2) (= (cost 1 1) 14) (= (cost 1 2) 13) (= (cost 1 3) 3) (= (cost 1 4) 13) (= (cost 1 5) 10) (= (cost 1 6) 4) (= (cost 1 7) 9) (= (cost 1 8) 10) (= (cost 1 9) 10) (= (cost 1 10) 9) (= (cost 1 11) 4) (= (cost 1 12) 13) (= (cost 1 13) 6) (= (cost 1 14) 6) (= (cost 1 15) 17) (= (cost 1 16) 14) (= (cost 1 17) 10) (= (cost 1 18) 11) (= (cost 1 19) 6) (= (cost 2 0) 3) (= (cost 2 1) 14) (= (cost 2 2) 5) (= (cost 2 3) 9) (= (cost 2 4) 14) (= (cost 2 5) 2) (= (cost 2 6) 12) (= (cost 2 7) 6) (= (cost 2 8) 18) (= (cost 2 9) 7) (= (cost 2 10) 7) (= (cost 2 11) 17) (= (cost 2 12) 18) (= (cost 2 13) 5) (= (cost 2 14) 8) (= (cost 2 15) 3) (= (cost 2 16) 3) (= (cost 2 17) 2) (= (cost 2 18) 15) (= (cost 2 19) 19) (= (cost 3 0) 9) (= (cost 3 1) 8) (= (cost 3 2) 9) (= (cost 3 3) 9) (= (cost 3 4) 14) (= (cost 3 5) 7) (= (cost 3 6) 14) (= (cost 3 7) 1) (= (cost 3 8) 4) (= (cost 3 9) 4) (= (cost 3 10) 15) (= (cost 3 11) 20) (= (cost 3 12) 14) (= (cost 3 13) 3) (= (cost 3 14) 16) (= (cost 3 15) 4) (= (cost 3 16) 17) (= (cost 3 17) 2) (= (cost 3 18) 3) (= (cost 3 19) 5) (= (cost 4 0) 13) (= (cost 4 1) 8) (= (cost 4 2) 1) (= (cost 4 3) 9) (= (cost 4 4) 20) (= (cost 4 5) 13) (= (cost 4 6) 4) (= (cost 4 7) 5) (= (cost 4 8) 18) (= (cost 4 9) 12) (= (cost 4 10) 19) (= (cost 4 11) 16) (= (cost 4 12) 18) (= (cost 4 13) 19) (= (cost 4 14) 15) (= (cost 4 15) 20) (= (cost 4 16) 12) (= (cost 4 17) 4) (= (cost 4 18) 20) (= (cost 4 19) 15) (= (cost 5 0) 9) (= (cost 5 1) 7) (= (cost 5 2) 9) (= (cost 5 3) 20) (= (cost 5 4) 12) (= (cost 5 5) 8) (= (cost 5 6) 19) (= (cost 5 7) 12) (= (cost 5 8) 15) (= (cost 5 9) 16) (= (cost 5 10) 2) (= (cost 5 11) 2) (= (cost 5 12) 12) (= (cost 5 13) 19) (= (cost 5 14) 7) (= (cost 5 15) 14) (= (cost 5 16) 4) (= (cost 5 17) 6) (= (cost 5 18) 1) (= (cost 5 19) 7) (= (cost 6 0) 8) (= (cost 6 1) 12) (= (cost 6 2) 18) (= (cost 6 3) 3) (= (cost 6 4) 1) (= (cost 6 5) 15) (= (cost 6 6) 20) (= (cost 6 7) 11) (= (cost 6 8) 11) (= (cost 6 9) 9) (= (cost 6 10) 15) (= (cost 6 11) 6) (= (cost 6 12) 15) (= (cost 6 13) 15) (= (cost 6 14) 3) (= (cost 6 15) 8) (= (cost 6 16) 10) (= (cost 6 17) 17) (= (cost 6 18) 10) (= (cost 6 19) 12) (= (cost 7 0) 1) (= (cost 7 1) 6) (= (cost 7 2) 9) (= (cost 7 3) 6) (= (cost 7 4) 12) (= (cost 7 5) 15) (= (cost 7 6) 13) (= (cost 7 7) 17) (= (cost 7 8) 16) (= (cost 7 9) 14) (= (cost 7 10) 18) (= (cost 7 11) 7) (= (cost 7 12) 2) (= (cost 7 13) 19) (= (cost 7 14) 4) (= (cost 7 15) 2) (= (cost 7 16) 19) (= (cost 7 17) 12) (= (cost 7 18) 1) (= (cost 7 19) 7) (= (cost 8 0) 2) (= (cost 8 1) 19) (= (cost 8 2) 19) (= (cost 8 3) 15) (= (cost 8 4) 20) (= (cost 8 5) 9) (= (cost 8 6) 5) (= (cost 8 7) 1) (= (cost 8 8) 2) (= (cost 8 9) 18) (= (cost 8 10) 15) (= (cost 8 11) 18) (= (cost 8 12) 12) (= (cost 8 13) 20) (= (cost 8 14) 4) (= (cost 8 15) 5) (= (cost 8 16) 10) (= (cost 8 17) 17) (= (cost 8 18) 11) (= (cost 8 19) 17) (= (cost 9 0) 10) (= (cost 9 1) 14) (= (cost 9 2) 16) (= (cost 9 3) 2) (= (cost 9 4) 5) (= (cost 9 5) 5) (= (cost 9 6) 19) (= (cost 9 7) 3) (= (cost 9 8) 18) (= (cost 9 9) 16) (= (cost 9 10) 8) (= (cost 9 11) 7) (= (cost 9 12) 17) (= (cost 9 13) 3) (= (cost 9 14) 14) (= (cost 9 15) 2) (= (cost 9 16) 2) (= (cost 9 17) 6) (= (cost 9 18) 13) (= (cost 9 19) 3) (= (cost 10 0) 8) (= (cost 10 1) 3) (= (cost 10 2) 13) (= (cost 10 3) 2) (= (cost 10 4) 4) (= (cost 10 5) 9) (= (cost 10 6) 20) (= (cost 10 7) 3) (= (cost 10 8) 5) (= (cost 10 9) 11) (= (cost 10 10) 2) (= (cost 10 11) 17) (= (cost 10 12) 3) (= (cost 10 13) 11) (= (cost 10 14) 4) (= (cost 10 15) 17) (= (cost 10 16) 8) (= (cost 10 17) 6) (= (cost 10 18) 19) (= (cost 10 19) 7) (= (cost 11 0) 3) (= (cost 11 1) 11) (= (cost 11 2) 19) (= (cost 11 3) 17) (= (cost 11 4) 13) (= (cost 11 5) 3) (= (cost 11 6) 10) (= (cost 11 7) 6) (= (cost 11 8) 10) (= (cost 11 9) 13) (= (cost 11 10) 5) (= (cost 11 11) 4) (= (cost 11 12) 14) (= (cost 11 13) 17) (= (cost 11 14) 1) (= (cost 11 15) 20) (= (cost 11 16) 5) (= (cost 11 17) 12) (= (cost 11 18) 17) (= (cost 11 19) 10) (= (cost 12 0) 15) (= (cost 12 1) 8) (= (cost 12 2) 6) (= (cost 12 3) 9) (= (cost 12 4) 11) (= (cost 12 5) 11) (= (cost 12 6) 19) (= (cost 12 7) 19) (= (cost 12 8) 16) (= (cost 12 9) 10) (= (cost 12 10) 12) (= (cost 12 11) 18) (= (cost 12 12) 16) (= (cost 12 13) 12) (= (cost 12 14) 20) (= (cost 12 15) 13) (= (cost 12 16) 12) (= (cost 12 17) 11) (= (cost 12 18) 12) (= (cost 12 19) 17) (= (cost 13 0) 14) (= (cost 13 1) 7) (= (cost 13 2) 19) (= (cost 13 3) 20) (= (cost 13 4) 20) (= (cost 13 5) 1) (= (cost 13 6) 12) (= (cost 13 7) 5) (= (cost 13 8) 3) (= (cost 13 9) 16) (= (cost 13 10) 9) (= (cost 13 11) 20) (= (cost 13 12) 3) (= (cost 13 13) 10) (= (cost 13 14) 2) (= (cost 13 15) 7) (= (cost 13 16) 7) (= (cost 13 17) 9) (= (cost 13 18) 6) (= (cost 13 19) 19) (= (cost 14 0) 2) (= (cost 14 1) 7) (= (cost 14 2) 19) (= (cost 14 3) 6) (= (cost 14 4) 1) (= (cost 14 5) 18) (= (cost 14 6) 2) (= (cost 14 7) 1) (= (cost 14 8) 5) (= (cost 14 9) 12) (= (cost 14 10) 12) (= (cost 14 11) 3) (= (cost 14 12) 19) (= (cost 14 13) 5) (= (cost 14 14) 19) (= (cost 14 15) 16) (= (cost 14 16) 16) (= (cost 14 17) 3) (= (cost 14 18) 2) (= (cost 14 19) 5) (= (cost 15 0) 3) (= (cost 15 1) 20) (= (cost 15 2) 3) (= (cost 15 3) 10) (= (cost 15 4) 12) (= (cost 15 5) 15) (= (cost 15 6) 19) (= (cost 15 7) 6) (= (cost 15 8) 7) (= (cost 15 9) 20) (= (cost 15 10) 10) (= (cost 15 11) 20) (= (cost 15 12) 2) (= (cost 15 13) 7) (= (cost 15 14) 11) (= (cost 15 15) 8) (= (cost 15 16) 19) (= (cost 15 17) 20) (= (cost 15 18) 9) (= (cost 15 19) 4) (= (cost 16 0) 17) (= (cost 16 1) 2) (= (cost 16 2) 5) (= (cost 16 3) 13) (= (cost 16 4) 4) (= (cost 16 5) 13) (= (cost 16 6) 3) (= (cost 16 7) 12) (= (cost 16 8) 11) (= (cost 16 9) 13) (= (cost 16 10) 15) (= (cost 16 11) 5) (= (cost 16 12) 14) (= (cost 16 13) 17) (= (cost 16 14) 20) (= (cost 16 15) 14) (= (cost 16 16) 9) (= (cost 16 17) 5) (= (cost 16 18) 5) (= (cost 16 19) 5) (= (cost 17 0) 20) (= (cost 17 1) 20) (= (cost 17 2) 5) (= (cost 17 3) 15) (= (cost 17 4) 10) (= (cost 17 5) 13) (= (cost 17 6) 11) (= (cost 17 7) 9) (= (cost 17 8) 16) (= (cost 17 9) 6) (= (cost 17 10) 19) (= (cost 17 11) 6) (= (cost 17 12) 10) (= (cost 17 13) 2) (= (cost 17 14) 12) (= (cost 17 15) 15) (= (cost 17 16) 11) (= (cost 17 17) 19) (= (cost 17 18) 10) (= (cost 17 19) 15) (= (cost 18 0) 4) (= (cost 18 1) 1) (= (cost 18 2) 3) (= (cost 18 3) 18) (= (cost 18 4) 4) (= (cost 18 5) 10) (= (cost 18 6) 3) (= (cost 18 7) 5) (= (cost 18 8) 15) (= (cost 18 9) 4) (= (cost 18 10) 9) (= (cost 18 11) 6) (= (cost 18 12) 8) (= (cost 18 13) 8) (= (cost 18 14) 16) (= (cost 18 15) 11) (= (cost 18 16) 12) (= (cost 18 17) 8) (= (cost 18 18) 19) (= (cost 18 19) 3) (= (cost 19 0) 11) (= (cost 19 1) 16) (= (cost 19 2) 9) (= (cost 19 3) 2) (= (cost 19 4) 7) (= (cost 19 5) 17) (= (cost 19 6) 10) (= (cost 19 7) 11) (= (cost 19 8) 18) (= (cost 19 9) 8) (= (cost 19 10) 6) (= (cost 19 11) 8) (= (cost 19 12) 8) (= (cost 19 13) 16) (= (cost 19 14) 2) (= (cost 19 15) 11) (= (cost 19 16) 6) (= (cost 19 17) 4) (= (cost 19 18) 17) (= (cost 19 19) 6))))
(let (($x91 (and (distinct n_0 n_1 n_2 n_3 n_4 n_5 n_6 n_7 n_8 n_9 n_10 n_11 n_12 n_13 n_14 n_15 n_16 n_17 n_18 n_19) true)))
(let (($x90 (and (= n_0 0) (= n_19 3))))
(let (($x86 (and (>= n_19 0) (< n_19 20))))
(let (($x83 (and (>= n_18 0) (< n_18 20))))
(let (($x80 (and (>= n_17 0) (< n_17 20))))
(let (($x77 (and (>= n_16 0) (< n_16 20))))
(let (($x74 (and (>= n_15 0) (< n_15 20))))
(let (($x71 (and (>= n_14 0) (< n_14 20))))
(let (($x68 (and (>= n_13 0) (< n_13 20))))
(let (($x65 (and (>= n_12 0) (< n_12 20))))
(let (($x62 (and (>= n_11 0) (< n_11 20))))
(let (($x59 (and (>= n_10 0) (< n_10 20))))
(let (($x56 (and (>= n_9 0) (< n_9 20))))
(let (($x53 (and (>= n_8 0) (< n_8 20))))
(let (($x50 (and (>= n_7 0) (< n_7 20))))
(let (($x47 (and (>= n_6 0) (< n_6 20))))
(let (($x44 (and (>= n_5 0) (< n_5 20))))
(let (($x41 (and (>= n_4 0) (< n_4 20))))
(let (($x38 (and (>= n_3 0) (< n_3 20))))
(let (($x35 (and (>= n_2 0) (< n_2 20))))
(let (($x32 (and (>= n_1 0) (< n_1 20))))
(let (($x29 (and (>= n_0 0) (< n_0 20))))
(and $x29 $x32 $x35 $x38 $x41 $x44 $x47 $x50 $x53 $x56 $x59 $x62 $x65 $x68 $x71 $x74 $x77 $x80 $x83 $x86 $x90 $x91 $x910 $x932)))))))))))))))))))))))))))
(check-sat)
(get-model)
